p tw 175 362
1 100
1 101
1 143
1 144
2 10
2 108
2 109
2 117
2 151
2 152
3 62
3 63
3 171
3 172
4 48
4 49
4 105
4 106
4 148
4 149
5 57
5 58
5 129
5 130
6 78
6 79
6 168
6 169
7 60
7 61
7 99
7 100
7 133
7 134
7 142
7 143
8 77
8 78
8 113
8 114
9 71
9 72
9 174
9 175
10 116
10 117
11 98
11 99
11 141
11 142
12 62
12 81
12 118
12 153
12 154
13 16
13 109
13 152
14 63
14 64
14 121
14 122
15 39
15 66
15 67
15 95
15 126
15 127
16 65
16 66
16 109
16 152
17 39
17 104
17 105
17 115
17 116
17 147
17 148
18 75
18 76
18 111
18 112
19 53
19 54
19 82
19 83
19 120
19 121
19 162
19 163
20 103
20 104
20 145
20 146
21 51
21 52
21 90
21 91
21 101
21 134
21 135
21 144
21 160
21 161
22 72
22 89
22 90
22 135
22 136
22 159
22 160
23 79
23 80
23 136
23 137
24 107
24 108
24 150
24 151
25 69
25 70
25 128
25 129
25 173
25 174
26 68
26 69
26 173
27 36
27 93
27 139
28 64
28 65
28 84
28 85
28 123
28 124
28 156
28 157
29 54
29 55
29 102
29 103
29 119
29 120
29 146
29 147
30 47
30 48
30 81
30 82
30 118
30 119
30 154
30 155
31 73
31 74
31 110
32 61
32 91
32 92
32 137
32 138
32 169
33 97
33 98
33 140
33 141
34 49
34 50
34 86
34 87
34 124
34 125
34 157
34 158
35 50
35 51
35 130
35 131
36 92
36 93
36 94
36 95
36 138
36 139
37 53
37 162
37 170
38 59
38 60
38 175
39 95
39 115
40 56
40 57
40 96
40 127
40 128
41 70
41 71
41 87
41 88
41 131
41 132
41 158
41 159
42 74
42 75
42 85
42 86
42 110
42 111
42 125
42 126
42 164
42 165
43 55
43 56
43 83
43 84
43 106
43 107
43 122
43 123
43 149
43 150
43 163
43 164
44 47
44 153
44 170
44 171
45 96
45 97
45 140
46 76
46 77
46 88
46 89
46 94
46 132
46 133
46 166
46 167
47 48
48 49
49 50
50 51
51 52
52 161
53 54
54 55
55 56
56 57
57 58
58 59
59 60
60 61
62 63
63 64
64 65
65 66
66 67
67 68
68 69
69 70
70 71
71 72
73 74
73 172
74 75
75 76
76 77
77 78
78 79
79 80
80 114
81 82
82 83
83 84
84 85
85 86
86 87
87 88
88 89
89 90
90 91
91 92
92 93
94 95
96 97
97 98
98 99
99 100
100 101
102 103
102 145
103 104
104 105
105 106
106 107
107 108
108 109
110 111
111 112
112 113
113 114
115 116
116 117
118 119
119 120
120 121
121 122
122 123
123 124
124 125
125 126
126 127
127 128
128 129
129 130
130 131
131 132
132 133
133 134
134 135
135 136
136 137
137 138
138 139
140 141
141 142
142 143
143 144
145 146
146 147
147 148
148 149
149 150
150 151
151 152
153 154
154 155
155 156
156 157
157 158
158 159
159 160
160 161
162 163
163 164
164 165
165 166
166 167
167 168
168 169
170 171
171 172
173 174
174 175
